(set-option :auto-config false)
(set-option :model true)

(set-option :smt.mbqi false)

(define-sort Str () Int)
(declare-fun strLen (Str) Int)
(declare-fun subString (Str Int Int) Str)
(declare-fun concatString (Str Str) Str)
(define-sort Elt () Int)
(define-sort LSet () (Array Elt Bool))
(define-fun smt_set_emp () LSet ((as const LSet) false))
(define-fun smt_set_sng ((x Elt)) LSet (store ((as const LSet) false) x true))
(define-fun smt_set_mem ((x Elt) (s LSet)) Bool (select s x))
(define-fun smt_set_add ((s LSet) (x Elt)) LSet (store s x true))
(define-fun smt_set_cup ((s1 LSet) (s2 LSet)) LSet ((_ map or) s1 s2))
(define-fun smt_set_cap ((s1 LSet) (s2 LSet)) LSet ((_ map and) s1 s2))
(define-fun smt_set_com ((s LSet)) LSet ((_ map not) s))
(define-fun smt_set_dif ((s1 LSet) (s2 LSet)) LSet (smt_set_cap s1 (smt_set_com s2)))
(define-fun smt_set_sub ((s1 LSet) (s2 LSet)) Bool (= smt_set_emp (smt_set_dif s1 s2)))
(define-sort Map () (Array Elt Elt))
(define-fun smt_map_sel ((m Map) (k Elt)) Elt (select m k))
(define-fun smt_map_sto ((m Map) (k Elt) (v Elt)) Map (store m k v))
(define-fun smt_map_cup ((m1 Map) (m2 Map)) Map ((_ map (+ (Elt Elt) Elt)) m1 m2))
(define-fun smt_map_prj ((s LSet) (m Map)) Map ((_ map (ite (Bool Elt Elt) Elt)) s m ((as const (Array Elt Elt)) 0)))
(define-fun smt_map_to_set ((m Map)) LSet ((_ map (> (Elt Elt) Bool)) m ((as const (Array Elt Elt)) 0)))
(define-fun smt_map_max ((m1 Map) (m2 Map)) Map (lambda ((i Int)) (ite (> (select m1 i) (select m2 i)) (select m1 i) (select m2 i))))
(define-fun smt_map_min ((m1 Map) (m2 Map)) Map (lambda ((i Int)) (ite (< (select m1 i) (select m2 i)) (select m1 i) (select m2 i))))
(define-fun smt_map_shift ((n Int) (m Map)) Map (lambda ((i Int)) (select m (- i n))))
(define-fun smt_map_def ((v Elt)) Map ((as const (Map)) v))
(define-fun bool_to_int ((b Bool)) Int (ite b 1 0))
(define-fun Z3_OP_MUL ((x Int) (y Int)) Int (* x y))
(define-fun Z3_OP_DIV ((x Int) (y Int)) Int (div x y))
(declare-fun papp7 () Int)
(declare-fun GHC.Types.$91$$93$ () Int)
(declare-fun GHC.Types.Word32Rep () Int)
(declare-fun GHC.Base.$36$fFunctorIO () Int)
(declare-fun InterfaceAdapters.Weather.PirateWeatherHeaders.$36$sel$58$nearestStormBearing$58$DarkSkyDataPoint () Int)
(declare-fun InterfaceAdapters.Utils.Helper.SomeIOError () Int)
(declare-fun InterfaceAdapters.Weather.PirateWeatherHeaders.$36$sel$58$uvIndex$58$DarkSkyDataPoint () Int)
(declare-fun InterfaceAdapters.Weather.PirateWeatherHeaders.$36$sel$58$dewPoint$58$DarkSkyDataPoint () Int)
(declare-fun InterfaceAdapters.Preferences.Monsoon () Int)
(declare-fun GHC.Types.C$35$ () Int)
(declare-fun InterfaceAdapters.Weather.PirateWeatherHeaders.$36$sel$58$temperature$58$DarkSkyDataPoint () Int)
(declare-fun InterfaceAdapters.Preferences.Standard () Int)
(declare-fun GHC.Types.$58$ () Int)
(declare-fun tail () Int)
(declare-fun Data.ByteString.Lazy.Internal.Chunk () Int)
(declare-fun Data.Aeson.Types.ToJSON.C$58$ToJSON () Int)
(declare-fun InterfaceAdapters.Weather.PirateWeatherHeaders.DarkSkyDataPoint () Int)
(declare-fun GHC.Types.Word8Rep () Int)
(declare-fun InterfaceAdapters.Utils.Helper.MissingEnvError () Int)
(declare-fun InterfaceAdapters.Preferences.RightNow () Int)
(declare-fun Data.Functor.$60$$36$$62$ () Int)
(declare-fun InterfaceAdapters.Utils.Helper.catSF () Int)
(declare-fun InterfaceAdapters.Weather.PirateWeatherHeaders.$36$sel$58$dd_temperatureLow$58$DarkSkyDataPointDailyDetails () Int)
(declare-fun GHC.Base.$60$$62$ () Int)
(declare-fun GHC.Tuple.$40$$44$$41$ () Int)
(declare-fun Data.Maybe.fromMaybe () Int)
(declare-fun InterfaceAdapters.Weather.PirateWeatherHeaders.$36$sel$58$dly_data$58$DarkSkyDataPointDaily () Int)
(declare-fun InterfaceAdapters.Weather.PirateWeatherHeaders.$36$sel$58$windBearing$58$DarkSkyDataPoint () Int)
(declare-fun Data.Aeson.Types.Internal.$36$WBool () Int)
(declare-fun Data.Aeson.Types.Internal.Object () Int)
(declare-fun papp5 () Int)
(declare-fun InterfaceAdapters.Weather.PirateWeatherHeaders.$36$sel$58$dd_uvIndex$58$DarkSkyDataPointDailyDetails () Int)
(declare-fun GHC.Types.Word16Rep () Int)
(declare-fun GHC.Base.$43$$43$ () Int)
(declare-fun GHC.Maybe.Just () Int)
(declare-fun x_Tuple22 () Int)
(declare-fun Data.Aeson.Types.Internal.$36$WNumber () Int)
(declare-fun GHC.Generics.C$58$Generic () Int)
(declare-fun GHC.Base.pure () Int)
(declare-fun GHC.Base.$62$$62$$61$ () Int)
(declare-fun Data.Aeson.eitherDecode () Int)
(declare-fun GHC.IO.Exception.IOError () Int)
(declare-fun GHC.Types.Module () Int)
(declare-fun GHC.Stack.Types.FreezeCallStack () Int)
(declare-fun InterfaceAdapters.Weather.PirateWeatherHeaders.$36$sel$58$humidity$58$DarkSkyDataPoint () Int)
(declare-fun GHC.Types.TrNameD () Int)
(declare-fun GHC.Types.Word64Rep () Int)
(declare-fun GHC.Types.UnliftedRep () Int)
(declare-fun InterfaceAdapters.Preferences.WaterLevels () Int)
(declare-fun InterfaceAdapters.Weather.PirateWeatherHeaders.$36$sel$58$nearestStormDistance$58$DarkSkyDataPoint () Int)
(declare-fun Data.Aeson.Types.Internal.Array () Int)
(declare-fun InterfaceAdapters.Weather.PirateWeatherHeaders.$36$sel$58$dd_summary$58$DarkSkyDataPointDailyDetails () Int)
(declare-fun Data.Foldable.length () Int)
(declare-fun GHC.Types.IntRep () Int)
(declare-fun InterfaceAdapters.Weather.PirateWeatherHeaders.$36$sel$58$dd_precipIntensityMax$58$DarkSkyDataPointDailyDetails () Int)
(declare-fun Control.Exception.Base.patError () Int)
(declare-fun GHC.Types.DoubleRep () Int)
(declare-fun Data.Text.Internal.Text () Int)
(declare-fun GHC.Float.$36$fNumFloat () Int)
(declare-fun GHC.Types.Int8Rep () Int)
(declare-fun GHC.Real.$36$W$58$$37$ () Int)
(declare-fun Data.Text.Show.unpack () Int)
(declare-fun InterfaceAdapters.Preferences.WeatherWaterLevels () Int)
(declare-fun GHC.Types.WordRep () Int)
(declare-fun papp3 () Int)
(declare-fun InterfaceAdapters.Weather.PirateWeatherHeaders.$36$sel$58$precipIntensity$58$DarkSkyDataPoint () Int)
(declare-fun Data.Aeson.Types.Internal.Bool () Int)
(declare-fun Data.Text.pack () Int)
(declare-fun InterfaceAdapters.Utils.JSONHelper.getJSON () Int)
(declare-fun Data.Either.fromRight () Int)
(declare-fun GHC.Exts.toList () Int)
(declare-fun Data.Aeson.Types.Internal.String () Int)
(declare-fun GHC.Enum.C$58$Bounded () Int)
(declare-fun InterfaceAdapters.Preferences.All () Int)
(declare-fun GHC.Types.True () Int)
(declare-fun GHC.CString.unpackCString$35$ () Int)
(declare-fun InterfaceAdapters.Weather.PirateWeatherHeaders.$36$sel$58$precipType$58$DarkSkyDataPoint () Int)
(declare-fun InterfaceAdapters.IP.GeoLatLong.getLatLongforThis () Int)
(declare-fun InterfaceAdapters.Weather.PirateWeatherHeaders.$36$sel$58$summary$58$DarkSkyDataPoint () Int)
(declare-fun GHC.Stack.Types.EmptyCallStack () Int)
(declare-fun x_Tuple33 () Int)
(declare-fun Data.Either.Right () Int)
(declare-fun Data.Aeson.Types.FromJSON.C$58$FromJSON () Int)
(declare-fun GHC.Show.C$58$Show () Int)
(declare-fun GHC.Stack.Types.emptyCallStack () Int)
(declare-fun cast_as () Int)
(declare-fun Data.Text.Internal.$36$WText () Int)
(declare-fun InterfaceAdapters.Weather.PirateWeatherHeaders.$36$sel$58$windGust$58$DarkSkyDataPoint () Int)
(declare-fun Data.ByteString.Lazy.Internal.$36$WChunk () Int)
(declare-fun GHC.Base.$36$fApplicativeIO () Int)
(declare-fun InterfaceAdapters.Weather.PirateWeatherHeaders.$36$sel$58$daily$58$DarkSky () Int)
(declare-fun cast_as_int () Int)
(declare-fun GHC.Num.$43$ () Int)
(declare-fun GHC.Types.F$35$ () Int)
(declare-fun GHC.Exts.fromListN () Int)
(declare-fun Data.String.$36$fIsString$91$$93$ () Int)
(declare-fun GHC.Base.$36$fMonadIO () Int)
(declare-fun Data.Aeson.Types.Internal.$36$WObject () Int)
(declare-fun InterfaceAdapters.Weather.PirateWeatherHeaders.$36$sel$58$cloudCover$58$DarkSkyDataPoint () Int)
(declare-fun GHC.Types.Int64Rep () Int)
(declare-fun GHC.Types.LT () Int)
(declare-fun GHC.Tuple.$40$$44$$44$$41$ () Int)
(declare-fun papp1 () Int)
(declare-fun InterfaceAdapters.Weather.PirateWeatherHeaders.DarkSkyDataPointDailyDetails () Int)
(declare-fun GHC.Types.AddrRep () Int)
(declare-fun papp6 () Int)
(declare-fun GHC.Classes.C$58$IP () Int)
(declare-fun Data.Either.Left () Int)
(declare-fun InterfaceAdapters.Weather.PirateWeatherHeaders.$36$sel$58$currently$58$DarkSky () Int)
(declare-fun InterfaceAdapters.Weather.PirateWeatherHeaders.DarkSkyDataPointDaily () Int)
(declare-fun GHC.Classes.C$58$Eq () Int)
(declare-fun liquid_internal_this () Int)
(declare-fun InterfaceAdapters.Weather.PirateWeatherHeaders.$36$sel$58$precipProbability$58$DarkSkyDataPoint () Int)
(declare-fun InterfaceAdapters.Preferences.LongRange () Int)
(declare-fun GHC.Tuple.$40$$41$ () Int)
(declare-fun GHC.Types.I$35$ () Int)
(declare-fun Data.ByteString.Lazy.Internal.Empty () Int)
(declare-fun x_Tuple31 () Int)
(declare-fun InterfaceAdapters.Weather.PirateWeatherHeaders.$36$sel$58$windSpeed$58$DarkSkyDataPoint () Int)
(declare-fun InterfaceAdapters.Preferences.Weather () Int)
(declare-fun GHC.Num.Integer.IS () Int)
(declare-fun GHC.Types.FloatRep () Int)
(declare-fun Data.OldList.unlines () Int)
(declare-fun Data.Aeson.Types.Internal.$36$WArray () Int)
(declare-fun Data.Aeson.Types.Internal.Null () Int)
(declare-fun InterfaceAdapters.Utils.Helper.fahrenheitToCelsius () Int)
(declare-fun GHC.Types.LiftedRep () Int)
(declare-fun GHC.Types.EQ () Int)
(declare-fun InterfaceAdapters.Preferences.Mini () Int)
(declare-fun GHC.Real.$58$$37$ () Int)
(declare-fun GHC.Types.VecRep () Int)
(declare-fun InterfaceAdapters.Utils.Helper.EmptyKeyError () Int)
(declare-fun InterfaceAdapters.Preferences.Alerts () Int)
(declare-fun GHC.Num.$36$fNumInt () Int)
(declare-fun Data.Text.$36$fIsStringText () Int)
(declare-fun GHC.Base.. () Int)
(declare-fun InterfaceAdapters.Preferences.Preferences () Int)
(declare-fun GHC.Types.Int16Rep () Int)
(declare-fun papp4 () Int)
(declare-fun GHC.Base.return () Int)
(declare-fun InterfaceAdapters.Utils.Helper.catSI () Int)
(declare-fun Data.Aeson.Types.Internal.$36$WString () Int)
(declare-fun GHC.Stack.Types.PushCallStack () Int)
(declare-fun Data.Foldable.$36$fFoldable$91$$93$ () Int)
(declare-fun GHC.Stack.Types.pushCallStack () Int)
(declare-fun GHC.Exts.$36$fIsList$91$$93$ () Int)
(declare-fun GHC.Stack.Types.SrcLoc () Int)
(declare-fun GHC.Types.Eq$35$ () Int)
(declare-fun Data.Functor.$60$$38$$62$ () Int)
(declare-fun InterfaceAdapters.Weather.PirateWeatherHeaders.DarkSky () Int)
(declare-fun GHC.Types.SumRep () Int)
(declare-fun x_Tuple21 () Int)
(declare-fun head () Int)
(declare-fun GHC.Maybe.Nothing () Int)
(declare-fun Data.Either.isLeft () Int)
(declare-fun InterfaceAdapters.Weather.PirateWeatherHeaders.$36$sel$58$visibility$58$DarkSkyDataPoint () Int)
(declare-fun InterfaceAdapters.Weather.PirateWeatherHeaders.$36$sel$58$ozone$58$DarkSkyDataPoint () Int)
(declare-fun InterfaceAdapters.Utils.Helper.catSS () Int)
(declare-fun InterfaceAdapters.Utils.Helper.getKey () Int)
(declare-fun GHC.Num.Integer.IP () Int)
(declare-fun InterfaceAdapters.Utils.Helper._returnStdFail () Int)
(declare-fun InterfaceAdapters.Weather.PirateWeatherHeaders.$36$fFromJSONDarkSky () Int)
(declare-fun x_Tuple32 () Int)
(declare-fun Data.Aeson.Types.Internal.Number () Int)
(declare-fun Data.Text.isPrefixOf () Int)
(declare-fun GHC.Types.TupleRep () Int)
(declare-fun GHC.Types.TrNameS () Int)
(declare-fun GHC.Num.Integer.IN () Int)
(declare-fun InterfaceAdapters.Preferences.Detailed () Int)
(declare-fun GHC.Num.$42$ () Int)
(declare-fun GHC.Types.False () Int)
(declare-fun InterfaceAdapters.Preferences.NearForecast () Int)
(declare-fun InterfaceAdapters.Weather.PirateWeatherHeaders.$36$sel$58$dd_temperatureHigh$58$DarkSkyDataPointDailyDetails () Int)
(declare-fun papp2 () Int)
(declare-fun Data.Text.$36$fSemigroupText () Int)
(declare-fun Data.String.fromString () Int)
(declare-fun GHC.Types.GT () Int)
(declare-fun GHC.Types.Int32Rep () Int)
(declare-fun apply$35$$35$13 (Int (_ BitVec 32)) Bool)
(declare-fun apply$35$$35$1 (Int Int) Bool)
(declare-fun apply$35$$35$3 (Int Int) (_ BitVec 32))
(declare-fun apply$35$$35$15 (Int (_ BitVec 32)) (_ BitVec 32))
(declare-fun apply$35$$35$14 (Int (_ BitVec 32)) Str)
(declare-fun apply$35$$35$9 (Int Str) Bool)
(declare-fun apply$35$$35$4 (Int Bool) Int)
(declare-fun apply$35$$35$10 (Int Str) Str)
(declare-fun apply$35$$35$11 (Int Str) (_ BitVec 32))
(declare-fun apply$35$$35$12 (Int (_ BitVec 32)) Int)
(declare-fun apply$35$$35$8 (Int Str) Int)
(declare-fun apply$35$$35$0 (Int Int) Int)
(declare-fun apply$35$$35$6 (Int Bool) Str)
(declare-fun apply$35$$35$7 (Int Bool) (_ BitVec 32))
(declare-fun apply$35$$35$2 (Int Int) Str)
(declare-fun apply$35$$35$5 (Int Bool) Bool)
(declare-fun coerce$35$$35$13 ((_ BitVec 32)) Bool)
(declare-fun coerce$35$$35$1 (Int) Bool)
(declare-fun coerce$35$$35$3 (Int) (_ BitVec 32))
(declare-fun coerce$35$$35$15 ((_ BitVec 32)) (_ BitVec 32))
(declare-fun coerce$35$$35$14 ((_ BitVec 32)) Str)
(declare-fun coerce$35$$35$9 (Str) Bool)
(declare-fun coerce$35$$35$4 (Bool) Int)
(declare-fun coerce$35$$35$10 (Str) Str)
(declare-fun coerce$35$$35$11 (Str) (_ BitVec 32))
(declare-fun coerce$35$$35$12 ((_ BitVec 32)) Int)
(declare-fun coerce$35$$35$8 (Str) Int)
(declare-fun coerce$35$$35$0 (Int) Int)
(declare-fun coerce$35$$35$6 (Bool) Str)
(declare-fun coerce$35$$35$7 (Bool) (_ BitVec 32))
(declare-fun coerce$35$$35$2 (Int) Str)
(declare-fun coerce$35$$35$5 (Bool) Bool)
(declare-fun smt_lambda$35$$35$13 ((_ BitVec 32) Bool) Int)
(declare-fun smt_lambda$35$$35$1 (Int Bool) Int)
(declare-fun smt_lambda$35$$35$3 (Int (_ BitVec 32)) Int)
(declare-fun smt_lambda$35$$35$15 ((_ BitVec 32) (_ BitVec 32)) Int)
(declare-fun smt_lambda$35$$35$14 ((_ BitVec 32) Str) Int)
(declare-fun smt_lambda$35$$35$9 (Str Bool) Int)
(declare-fun smt_lambda$35$$35$4 (Bool Int) Int)
(declare-fun smt_lambda$35$$35$10 (Str Str) Int)
(declare-fun smt_lambda$35$$35$11 (Str (_ BitVec 32)) Int)
(declare-fun smt_lambda$35$$35$12 ((_ BitVec 32) Int) Int)
(declare-fun smt_lambda$35$$35$8 (Str Int) Int)
(declare-fun smt_lambda$35$$35$0 (Int Int) Int)
(declare-fun smt_lambda$35$$35$6 (Bool Str) Int)
(declare-fun smt_lambda$35$$35$7 (Bool (_ BitVec 32)) Int)
(declare-fun smt_lambda$35$$35$2 (Int Str) Int)
(declare-fun smt_lambda$35$$35$5 (Bool Bool) Int)
(declare-fun lam_arg$35$$35$1$35$$35$4 () Bool)
(declare-fun lam_arg$35$$35$2$35$$35$4 () Bool)
(declare-fun lam_arg$35$$35$3$35$$35$4 () Bool)
(declare-fun lam_arg$35$$35$4$35$$35$4 () Bool)
(declare-fun lam_arg$35$$35$5$35$$35$4 () Bool)
(declare-fun lam_arg$35$$35$6$35$$35$4 () Bool)
(declare-fun lam_arg$35$$35$7$35$$35$4 () Bool)
(declare-fun lam_arg$35$$35$1$35$$35$12 () (_ BitVec 32))
(declare-fun lam_arg$35$$35$2$35$$35$12 () (_ BitVec 32))
(declare-fun lam_arg$35$$35$3$35$$35$12 () (_ BitVec 32))
(declare-fun lam_arg$35$$35$4$35$$35$12 () (_ BitVec 32))
(declare-fun lam_arg$35$$35$5$35$$35$12 () (_ BitVec 32))
(declare-fun lam_arg$35$$35$6$35$$35$12 () (_ BitVec 32))
(declare-fun lam_arg$35$$35$7$35$$35$12 () (_ BitVec 32))
(declare-fun lam_arg$35$$35$1$35$$35$8 () Str)
(declare-fun lam_arg$35$$35$2$35$$35$8 () Str)
(declare-fun lam_arg$35$$35$3$35$$35$8 () Str)
(declare-fun lam_arg$35$$35$4$35$$35$8 () Str)
(declare-fun lam_arg$35$$35$5$35$$35$8 () Str)
(declare-fun lam_arg$35$$35$6$35$$35$8 () Str)
(declare-fun lam_arg$35$$35$7$35$$35$8 () Str)
(declare-fun lam_arg$35$$35$1$35$$35$0 () Int)
(declare-fun lam_arg$35$$35$2$35$$35$0 () Int)
(declare-fun lam_arg$35$$35$3$35$$35$0 () Int)
(declare-fun lam_arg$35$$35$4$35$$35$0 () Int)
(declare-fun lam_arg$35$$35$5$35$$35$0 () Int)
(declare-fun lam_arg$35$$35$6$35$$35$0 () Int)
(declare-fun lam_arg$35$$35$7$35$$35$0 () Int)

(assert (distinct GHC.Types.False GHC.Types.True))


(assert (distinct InterfaceAdapters.Preferences.Weather InterfaceAdapters.Preferences.All InterfaceAdapters.Preferences.WeatherWaterLevels InterfaceAdapters.Preferences.WaterLevels InterfaceAdapters.Preferences.Monsoon))

(assert (distinct GHC.Types.Int32Rep GHC.Types.Int16Rep GHC.Types.LiftedRep GHC.Types.FloatRep GHC.Types.AddrRep GHC.Types.Int64Rep GHC.Types.WordRep GHC.Types.Int8Rep GHC.Types.DoubleRep GHC.Types.IntRep GHC.Types.UnliftedRep GHC.Types.Word64Rep GHC.Types.Word16Rep GHC.Types.Word8Rep GHC.Types.Word32Rep))





(assert (distinct GHC.Types.GT GHC.Types.EQ GHC.Types.LT))

(assert (distinct InterfaceAdapters.Preferences.Detailed InterfaceAdapters.Preferences.Mini InterfaceAdapters.Preferences.Standard))


(assert (distinct InterfaceAdapters.Preferences.NearForecast InterfaceAdapters.Preferences.Alerts InterfaceAdapters.Preferences.LongRange InterfaceAdapters.Preferences.RightNow))
(push 1)
(push 1)
(pop 1)
(pop 1)
(exit)
